127 126 125 124 69 70 68 67 66 65 72 71 123 122 121 120 118 119 73 74 75 76 77 88 89 90 87 81 80 79 78 62 64 63 61 60 59 58 57 83 82 86 85 84 51 50 52 54 53 56 55 49 48 47 44 43 42 39 41 40 38 37 36 35 33 34 557 556 555 45 46 91 92 93 94 97 95 96 98 554 553 552 99 100 102 101 551 550 559 558 560 561 562 563 549 548 564 565 566 567 475 476 477 478 479 480 481 482 483 485 484 536 535 487 486 534 488 489 490 529 528 526 491 492 493 524 525 523 522 521 520 517 519 518 494 495 471 472 473 474 570 569 568 21 24 25 26 27 28 29 30 32 31 22 23 12 13 14 15 16 11 10 9 20 19 18 17 8 7 6 5 4 3 2 1 0 573 572 571 468 469 470 496 497 464 465 467 466 463 462 461 460 459 458 457 456 455 454 438 437 436 435 434 433 432 430 431 429 428 427 426 420 421 422 423 424 425 382 386 387 407 408 385 383 384 409 405 406 399 400 404 403 402 401 360 359 358 357 354 353 355 356 412 411 410 418 419 417 413 414 416 415 352 351 350 349 348 347 362 361 363 346 345 364 365 367 368 369 370 398 397 394 393 391 392 390 388 389 381 380 379 378 377 376 375 395 396 371 372 373 374 315 314 316 313 305 306 318 317 319 320 321 297 322 323 324 325 326 327 328 329 366 342 343 344 341 340 330 331 332 333 339 338 337 336 335 334 283 284 285 286 287 280 281 282 279 278 288 289 290 277 276 275 274 273 292 291 294 295 296 293 270 268 269 272 271 267 298 266 265 264 263 262 259 258 299 300 257 256 260 261 255 253 254 252 251 250 249 248 241 242 243 244 245 247 246 238 239 240 237 508 302 301 303 304 307 507 506 505 308 309 310 311 312 451 450 449 448 447 446 445 444 443 442 439 440 441 453 452 499 500 501 498 502 503 504 516 515 514 527 512 513 509 510 511 236 235 234 232 233 530 531 532 533 231 230 229 228 227 186 188 187 538 537 539 540 176 177 178 180 181 179 182 183 185 184 197 196 195 194 193 192 191 190 189 226 225 219 218 220 221 222 224 223 217 216 215 214 213 212 211 210 209 208 207 206 205 198 199 200 201 202 204 203 165 164 166 167 163 162 168 169 171 170 172 175 174 173 108 109 111 110 107 542 541 543 544 545 546 547 103 104 105 106 117 116 115 114 112 113 161 160 154 155 156 159 157 158 145 144 143 142 146 153 147 148 152 149 150 151 141 140 139 138 137 136 135 134 133 132 131 130 129 128